(set-logic QF_LIA)
(declare-fun x0 () Int)
(declare-fun x1 () Int)
(declare-fun x2 () Int)
(declare-fun x3 () Int)
(declare-fun x4 () Int)
(declare-fun x5 () Int)
(declare-fun x6 () Int)
(declare-fun x7 () Int)
(declare-fun x8 () Int)
(declare-fun x9 () Int)
(declare-fun A0 () Bool)
(declare-fun A1 () Bool)
(declare-fun A2 () Bool)
(declare-fun A3 () Bool)
(declare-fun A4 () Bool)
(declare-fun A5 () Bool)
(declare-fun A6 () Bool)
(declare-fun A7 () Bool)
(declare-fun A8 () Bool)
(declare-fun A9 () Bool)
(assert (let ((.def_0 (not A1))) (let ((.def_1 (* (- 1) x7))) (let ((.def_2 (< .def_1 (- 1)))) (let ((.def_3 (and .def_2 .def_0))) (let ((.def_4 (* 1 x4))) (let ((.def_5 (* (- 1) x1))) (let ((.def_6 (+ .def_5 .def_4))) (let ((.def_7 (< .def_6 (- 1)))) (let ((.def_8 (or A3 .def_7))) (let ((.def_9 (not .def_8))) (let ((.def_10 (or .def_9 .def_3))) (let ((.def_11 (not .def_10))) (let ((.def_12 (* 1 x8))) (let ((.def_13 (* (- 1) x9))) (let ((.def_14 (+ .def_13 .def_12))) (let ((.def_15 (< .def_14 1))) (let ((.def_16 (not A5))) (let ((.def_17 (and .def_16 .def_15))) (let ((.def_18 (* (- 1) x3))) (let ((.def_19 (+ .def_4 .def_18))) (let ((.def_20 (< .def_19 (- 1)))) (let ((.def_21 (not A0))) (let ((.def_22 (or .def_21 .def_20))) (let ((.def_23 (and .def_22 .def_17))) (let ((.def_24 (not .def_23))) (let ((.def_25 (= .def_24 .def_11))) (let ((.def_26 (not .def_25))) (let ((.def_27 (and A2 A3))) (let ((.def_28 (* (- 1) x2))) (let ((.def_29 (< .def_28 1))) (let ((.def_30 (not .def_29))) (let ((.def_31 (or A8 .def_30))) (let ((.def_32 (not .def_31))) (let ((.def_33 (and .def_32 .def_27))) (let ((.def_34 (not A2))) (let ((.def_35 (* (- 1) x6))) (let ((.def_36 (< .def_35 (- 1)))) (let ((.def_37 (not .def_36))) (let ((.def_38 (or .def_37 .def_34))) (let ((.def_39 (* 1 x0))) (let ((.def_40 (+ .def_39 .def_1))) (let ((.def_41 (< .def_40 1))) (let ((.def_42 (not .def_41))) (let ((.def_43 (* 1 x7))) (let ((.def_44 (+ .def_43 .def_28))) (let ((.def_45 (< .def_44 1))) (let ((.def_46 (not .def_45))) (let ((.def_47 (and .def_46 .def_42))) (let ((.def_48 (not .def_47))) (let ((.def_49 (or .def_48 .def_38))) (let ((.def_50 (and .def_49 .def_33))) (let ((.def_51 (or .def_50 .def_26))) (let ((.def_52 (not .def_51))) (let ((.def_53 (and .def_0 A9))) (let ((.def_54 (* 1 x5))) (let ((.def_55 (+ .def_54 .def_43))) (let ((.def_56 (< .def_55 (- 1)))) (let ((.def_57 (not A7))) (let ((.def_58 (or .def_57 .def_56))) (let ((.def_59 (and .def_58 .def_53))) (let ((.def_60 (not .def_59))) (let ((.def_61 (not A9))) (let ((.def_62 (* 1 x2))) (let ((.def_63 (< .def_62 1))) (let ((.def_64 (or .def_63 .def_61))) (let ((.def_65 (not .def_64))) (let ((.def_66 (* 1 x6))) (let ((.def_67 (< .def_66 (- 1)))) (let ((.def_68 (not .def_67))) (let ((.def_69 (and .def_68 A9))) (let ((.def_70 (not .def_69))) (let ((.def_71 (and .def_70 .def_65))) (let ((.def_72 (not .def_71))) (let ((.def_73 (or .def_72 .def_60))) (let ((.def_74 (or .def_16 A7))) (let ((.def_75 (* 1 x3))) (let ((.def_76 (< .def_75 (- 1)))) (let ((.def_77 (or .def_21 .def_76))) (let ((.def_78 (and .def_77 .def_74))) (let ((.def_79 (not .def_78))) (let ((.def_80 (not A8))) (let ((.def_81 (* 1 x1))) (let ((.def_82 (* (- 1) x8))) (let ((.def_83 (+ .def_82 .def_81))) (let ((.def_84 (< .def_83 (- 1)))) (let ((.def_85 (not .def_84))) (let ((.def_86 (or .def_85 .def_80))) (let ((.def_87 (+ .def_4 .def_82))) (let ((.def_88 (< .def_87 (- 1)))) (let ((.def_89 (not .def_88))) (let ((.def_90 (< .def_54 (- 1)))) (let ((.def_91 (and .def_90 .def_89))) (let ((.def_92 (not .def_91))) (let ((.def_93 (and .def_92 .def_86))) (let ((.def_94 (not .def_93))) (let ((.def_95 (and .def_94 .def_79))) (let ((.def_96 (not .def_95))) (let ((.def_97 (or .def_96 .def_73))) (let ((.def_98 (and .def_97 .def_52))) (let ((.def_99 (not A6))) (let ((.def_100 (or .def_99 .def_99))) (let ((.def_101 (not .def_100))) (let ((.def_102 (and A9 A3))) (let ((.def_103 (not .def_102))) (let ((.def_104 (and .def_103 .def_101))) (let ((.def_105 (+ .def_39 .def_35))) (let ((.def_106 (< .def_105 1))) (let ((.def_107 (not .def_106))) (let ((.def_108 (* (- 1) x0))) (let ((.def_109 (+ .def_108 .def_75))) (let ((.def_110 (< .def_109 1))) (let ((.def_111 (not .def_110))) (let ((.def_112 (and .def_111 .def_107))) (let ((.def_113 (not .def_112))) (let ((.def_114 (not A3))) (let ((.def_115 (and .def_114 A0))) (let ((.def_116 (or .def_115 .def_113))) (let ((.def_117 (and .def_116 .def_104))) (let ((.def_118 (not .def_117))) (let ((.def_119 (+ .def_81 .def_43))) (let ((.def_120 (< .def_119 1))) (let ((.def_121 (= .def_120 .def_61))) (let ((.def_122 (not .def_121))) (let ((.def_123 (= .def_0 A8))) (let ((.def_124 (not .def_123))) (let ((.def_125 (or .def_124 .def_122))) (let ((.def_126 (* (- 1) x4))) (let ((.def_127 (+ .def_126 .def_28))) (let ((.def_128 (< .def_127 1))) (let ((.def_129 (< .def_43 1))) (let ((.def_130 (not .def_129))) (let ((.def_131 (or .def_130 .def_128))) (let ((.def_132 (not .def_131))) (let ((.def_133 (+ .def_108 .def_28))) (let ((.def_134 (< .def_133 1))) (let ((.def_135 (not .def_134))) (let ((.def_136 (and .def_99 .def_135))) (let ((.def_137 (not .def_136))) (let ((.def_138 (or .def_137 .def_132))) (let ((.def_139 (not .def_138))) (let ((.def_140 (and .def_139 .def_125))) (let ((.def_141 (or .def_140 .def_118))) (let ((.def_142 (not .def_141))) (let ((.def_143 (< .def_28 (- 1)))) (let ((.def_144 (not .def_143))) (let ((.def_145 (or A9 .def_144))) (let ((.def_146 (not .def_145))) (let ((.def_147 (< .def_126 (- 1)))) (let ((.def_148 (not .def_147))) (let ((.def_149 (and A0 .def_148))) (let ((.def_150 (not .def_149))) (let ((.def_151 (and .def_150 .def_146))) (let ((.def_152 (not .def_151))) (let ((.def_153 (+ .def_12 .def_108))) (let ((.def_154 (< .def_153 1))) (let ((.def_155 (or .def_154 A8))) (let ((.def_156 (+ .def_1 .def_12))) (let ((.def_157 (< .def_156 1))) (let ((.def_158 (not .def_157))) (let ((.def_159 (and .def_158 A1))) (let ((.def_160 (not .def_159))) (let ((.def_161 (or .def_160 .def_155))) (let ((.def_162 (or .def_161 .def_152))) (let ((.def_163 (< .def_12 1))) (let ((.def_164 (or .def_163 .def_61))) (let ((.def_165 (not .def_164))) (let ((.def_166 (or .def_21 .def_21))) (let ((.def_167 (not .def_166))) (let ((.def_168 (or .def_167 .def_165))) (let ((.def_169 (not .def_168))) (let ((.def_170 (and A0 .def_21))) (let ((.def_171 (+ .def_35 .def_82))) (let ((.def_172 (< .def_171 (- 1)))) (let ((.def_173 (not .def_172))) (let ((.def_174 (or .def_173 A1))) (let ((.def_175 (or .def_174 .def_170))) (let ((.def_176 (or .def_175 .def_169))) (let ((.def_177 (and .def_176 .def_162))) (let ((.def_178 (or .def_177 .def_142))) (let ((.def_179 (not .def_178))) (let ((.def_180 (and .def_179 .def_98))) (let ((.def_181 (+ .def_4 .def_35))) (let ((.def_182 (< .def_181 1))) (let ((.def_183 (or .def_182 A3))) (let ((.def_184 (not .def_183))) (let ((.def_185 (+ .def_35 .def_62))) (let ((.def_186 (< .def_185 (- 1)))) (let ((.def_187 (not .def_186))) (let ((.def_188 (or .def_147 .def_187))) (let ((.def_189 (and .def_188 .def_184))) (let ((.def_190 (and A6 A5))) (let ((.def_191 (not .def_190))) (let ((.def_192 (= A5 A6))) (let ((.def_193 (and .def_192 .def_191))) (let ((.def_194 (and .def_193 .def_189))) (let ((.def_195 (+ .def_108 .def_66))) (let ((.def_196 (< .def_195 (- 1)))) (let ((.def_197 (not .def_196))) (let ((.def_198 (and A0 .def_197))) (let ((.def_199 (not .def_198))) (let ((.def_200 (and .def_114 .def_63))) (let ((.def_201 (and .def_200 .def_199))) (let ((.def_202 (not .def_201))) (let ((.def_203 (* (- 1) x5))) (let ((.def_204 (+ .def_62 .def_203))) (let ((.def_205 (< .def_204 1))) (let ((.def_206 (not .def_205))) (let ((.def_207 (and .def_61 .def_206))) (let ((.def_208 (or .def_16 A4))) (let ((.def_209 (not .def_208))) (let ((.def_210 (or .def_209 .def_207))) (let ((.def_211 (or .def_210 .def_202))) (let ((.def_212 (or .def_211 .def_194))) (let ((.def_213 (+ .def_12 .def_39))) (let ((.def_214 (< .def_213 (- 1)))) (let ((.def_215 (+ .def_66 .def_12))) (let ((.def_216 (< .def_215 1))) (let ((.def_217 (not .def_216))) (let ((.def_218 (or .def_217 .def_214))) (let ((.def_219 (< .def_203 (- 1)))) (let ((.def_220 (+ .def_62 .def_126))) (let ((.def_221 (< .def_220 (- 1)))) (let ((.def_222 (not .def_221))) (let ((.def_223 (and .def_222 .def_219))) (let ((.def_224 (and .def_223 .def_218))) (let ((.def_225 (not .def_76))) (let ((.def_226 (and .def_225 .def_114))) (let ((.def_227 (not .def_226))) (let ((.def_228 (+ .def_39 .def_18))) (let ((.def_229 (< .def_228 (- 1)))) (let ((.def_230 (or .def_90 .def_229))) (let ((.def_231 (= .def_230 .def_227))) (let ((.def_232 (or .def_231 .def_224))) (let ((.def_233 (or .def_57 .def_80))) (let ((.def_234 (* 1 x9))) (let ((.def_235 (+ .def_54 .def_234))) (let ((.def_236 (< .def_235 (- 1)))) (let ((.def_237 (and A0 .def_236))) (let ((.def_238 (and .def_237 .def_233))) (let ((.def_239 (not .def_238))) (let ((.def_240 (or A3 .def_61))) (let ((.def_241 (+ .def_108 .def_62))) (let ((.def_242 (< .def_241 (- 1)))) (let ((.def_243 (not .def_242))) (let ((.def_244 (< .def_4 (- 1)))) (let ((.def_245 (not .def_244))) (let ((.def_246 (or .def_245 .def_243))) (let ((.def_247 (not .def_246))) (let ((.def_248 (and .def_247 .def_240))) (let ((.def_249 (or .def_248 .def_239))) (let ((.def_250 (or .def_249 .def_232))) (let ((.def_251 (and .def_250 .def_212))) (let ((.def_252 (or A0 A4))) (let ((.def_253 (not .def_252))) (let ((.def_254 (+ .def_18 .def_4))) (let ((.def_255 (< .def_254 1))) (let ((.def_256 (< .def_13 (- 1)))) (let ((.def_257 (or .def_256 .def_255))) (let ((.def_258 (not .def_257))) (let ((.def_259 (and .def_258 .def_253))) (let ((.def_260 (not .def_259))) (let ((.def_261 (not .def_163))) (let ((.def_262 (not .def_90))) (let ((.def_263 (= .def_262 .def_261))) (let ((.def_264 (< .def_81 (- 1)))) (let ((.def_265 (not .def_264))) (let ((.def_266 (and .def_265 .def_21))) (let ((.def_267 (not .def_266))) (let ((.def_268 (and .def_267 .def_263))) (let ((.def_269 (not .def_268))) (let ((.def_270 (or .def_269 .def_260))) (let ((.def_271 (< .def_18 (- 1)))) (let ((.def_272 (not .def_271))) (let ((.def_273 (= .def_114 .def_272))) (let ((.def_274 (not .def_273))) (let ((.def_275 (< .def_19 1))) (let ((.def_276 (or A5 .def_275))) (let ((.def_277 (not .def_276))) (let ((.def_278 (and .def_277 .def_274))) (let ((.def_279 (not .def_278))) (let ((.def_280 (< .def_13 1))) (let ((.def_281 (or A1 .def_280))) (let ((.def_282 (or A9 A9))) (let ((.def_283 (and .def_282 .def_281))) (let ((.def_284 (or .def_283 .def_279))) (let ((.def_285 (and .def_284 .def_270))) (let ((.def_286 (not A4))) (let ((.def_287 (and .def_286 A1))) (let ((.def_288 (+ .def_12 .def_35))) (let ((.def_289 (< .def_288 1))) (let ((.def_290 (not .def_289))) (let ((.def_291 (or A0 .def_290))) (let ((.def_292 (not .def_291))) (let ((.def_293 (or .def_292 .def_287))) (let ((.def_294 (not .def_293))) (let ((.def_295 (+ .def_1 .def_81))) (let ((.def_296 (< .def_295 1))) (let ((.def_297 (and A9 .def_296))) (let ((.def_298 (not .def_297))) (let ((.def_299 (not .def_280))) (let ((.def_300 (and .def_299 A3))) (let ((.def_301 (not .def_300))) (let ((.def_302 (and .def_301 .def_298))) (let ((.def_303 (not .def_302))) (let ((.def_304 (= .def_303 .def_294))) (let ((.def_305 (and A7 A6))) (let ((.def_306 (not .def_305))) (let ((.def_307 (< .def_203 1))) (let ((.def_308 (not .def_307))) (let ((.def_309 (and A6 .def_308))) (let ((.def_310 (and .def_309 .def_306))) (let ((.def_311 (< .def_54 1))) (let ((.def_312 (not .def_311))) (let ((.def_313 (or .def_312 A3))) (let ((.def_314 (< .def_75 1))) (let ((.def_315 (or .def_314 A6))) (let ((.def_316 (not .def_315))) (let ((.def_317 (and .def_316 .def_313))) (let ((.def_318 (= .def_317 .def_310))) (let ((.def_319 (not .def_318))) (let ((.def_320 (and .def_319 .def_304))) (let ((.def_321 (not .def_320))) (let ((.def_322 (or .def_321 .def_285))) (let ((.def_323 (and .def_322 .def_251))) (let ((.def_324 (and .def_323 .def_180))) (let ((.def_325 (not .def_324))) (let ((.def_326 (<= x9 1))) (let ((.def_327 (<= 0 x9))) (let ((.def_328 (<= x8 1))) (let ((.def_329 (<= 0 x8))) (let ((.def_330 (<= x7 1))) (let ((.def_331 (<= 0 x7))) (let ((.def_332 (<= x6 1))) (let ((.def_333 (<= 0 x6))) (let ((.def_334 (<= x5 1))) (let ((.def_335 (<= 0 x5))) (let ((.def_336 (<= x4 1))) (let ((.def_337 (<= 0 x4))) (let ((.def_338 (<= x3 1))) (let ((.def_339 (<= 0 x3))) (let ((.def_340 (<= x2 1))) (let ((.def_341 (<= 0 x2))) (let ((.def_342 (<= x1 1))) (let ((.def_343 (<= 0 x1))) (let ((.def_344 (<= x0 1))) (let ((.def_345 (<= 0 x0))) (let ((.def_346 (and .def_345 .def_344 .def_343 .def_342 .def_341 .def_340 .def_339 .def_338 .def_337 .def_336 .def_335 .def_334 .def_333 .def_332 .def_331 .def_330 .def_329 .def_328 .def_327 .def_326 .def_325))) .def_346))))))))))))))))))))))))))))))))))))))))))))))))))))))))))))))))))))))))))))))))))))))))))))))))))))))))))))))))))))))))))))))))))))))))))))))))))))))))))))))))))))))))))))))))))))))))))))))))))))))))))))))))))))))))))))))))))))))))))))))))))))))))))))))))))))))))))))))))))))))))))))))))))))))))))))))))))))))))))))))))))))))))))))))))))))))))))))
(check-sat)
